(set-logic QF_LRA)
(declare-fun X0 () Real )
(declare-fun Y0 () Real )
(declare-fun X1 () Real )
(declare-fun Y1 () Real )
(declare-fun X2 () Real )
(declare-fun Y2 () Real )
(declare-fun X3 () Real )
(declare-fun Y3 () Real )
(declare-fun X4 () Real )
(declare-fun Y4 () Real )
(declare-fun X5 () Real )
(declare-fun Y5 () Real )
(declare-fun Z () Real )
(assert ( and  
( or ( <= ( + X0 76 ) X1 )  ( <= ( + X1 40 ) X0 )  ( <= ( + Y0 34 ) Y1 )  ( <= ( + Y1 70 ) Y0 )  )
( or ( <= ( + X0 76 ) X2 )  ( <= ( + X2 89 ) X0 )  ( <= ( + Y0 34 ) Y2 )  ( <= ( + Y2 98 ) Y0 )  )
( or ( <= ( + X0 76 ) X3 )  ( <= ( + X3 76 ) X0 )  ( <= ( + Y0 34 ) Y3 )  ( <= ( + Y3 69 ) Y0 )  )
( or ( <= ( + X0 76 ) X4 )  ( <= ( + X4 64 ) X0 )  ( <= ( + Y0 34 ) Y4 )  ( <= ( + Y4 76 ) Y0 )  )
( or ( <= ( + X0 76 ) X5 )  ( <= ( + X5 43 ) X0 )  ( <= ( + Y0 34 ) Y5 )  ( <= ( + Y5 24 ) Y0 )  )
( or ( <= ( + X1 40 ) X2 )  ( <= ( + X2 89 ) X1 )  ( <= ( + Y1 70 ) Y2 )  ( <= ( + Y2 98 ) Y1 )  )
( or ( <= ( + X1 40 ) X3 )  ( <= ( + X3 76 ) X1 )  ( <= ( + Y1 70 ) Y3 )  ( <= ( + Y3 69 ) Y1 )  )
( or ( <= ( + X1 40 ) X4 )  ( <= ( + X4 64 ) X1 )  ( <= ( + Y1 70 ) Y4 )  ( <= ( + Y4 76 ) Y1 )  )
( or ( <= ( + X1 40 ) X5 )  ( <= ( + X5 43 ) X1 )  ( <= ( + Y1 70 ) Y5 )  ( <= ( + Y5 24 ) Y1 )  )
( or ( <= ( + X2 89 ) X3 )  ( <= ( + X3 76 ) X2 )  ( <= ( + Y2 98 ) Y3 )  ( <= ( + Y3 69 ) Y2 )  )
( or ( <= ( + X2 89 ) X4 )  ( <= ( + X4 64 ) X2 )  ( <= ( + Y2 98 ) Y4 )  ( <= ( + Y4 76 ) Y2 )  )
( or ( <= ( + X2 89 ) X5 )  ( <= ( + X5 43 ) X2 )  ( <= ( + Y2 98 ) Y5 )  ( <= ( + Y5 24 ) Y2 )  )
( or ( <= ( + X3 76 ) X4 )  ( <= ( + X4 64 ) X3 )  ( <= ( + Y3 69 ) Y4 )  ( <= ( + Y4 76 ) Y3 )  )
( or ( <= ( + X3 76 ) X5 )  ( <= ( + X5 43 ) X3 )  ( <= ( + Y3 69 ) Y5 )  ( <= ( + Y5 24 ) Y3 )  )
( or ( <= ( + X4 64 ) X5 )  ( <= ( + X5 43 ) X4 )  ( <= ( + Y4 76 ) Y5 )  ( <= ( + Y5 24 ) Y4 )  )
( >= X0 0)
( <= ( + X0 76) Z)
( >= Y0 0)
( <= ( + Y0 34 ) 122)
( >= X1 0)
( <= ( + X1 40) Z)
( >= Y1 0)
( <= ( + Y1 70 ) 122)
( >= X2 0)
( <= ( + X2 89) Z)
( >= Y2 0)
( <= ( + Y2 98 ) 122)
( >= X3 0)
( <= ( + X3 76) Z)
( >= Y3 0)
( <= ( + Y3 69 ) 122)
( >= X4 0)
( <= ( + X4 64) Z)
( >= Y4 0)
( <= ( + Y4 76 ) 122)
( >= X5 0)
( <= ( + X5 43) Z)
( >= Y5 0)
( <= ( + Y5 24 ) 122)
) )
(minimize Z)
(check-sat)
